! Solving for graph ../../../benchmarks/abp/U-662_bus.mtx.rnd
! Target value is set to 165
 ! --------------------------------------------------- CP Optimizer 22.2.0.0 --
 ! Minimization problem - 663 variables, 1568 constraints, 1 phase
 ! TimeLimit            = 1800
 ! LogVerbosity         = Terse
 ! Initial process time : 0.02s (0.02s extraction + 0.00s propagation)
 !  . Log search space  : 6212.8 (before), 6212.8 (after)
 !  . Memory usage      : 886.5 kB (before), 886.5 kB (after)
 ! Using parallel search with 8 workers.
 ! ----------------------------------------------------------------------------
 !          Best Branches  Non-fixed    W       Branch decision
                        0        663                 -
 + New bound is 1
                        0        663    1   F        -
 + New bound is 166
                        2        662    1   F     1 != _int190
 + New bound is 167
 *           496      665  0.16s        1      (gap is 66.33%)
             496     9014        663    1   F     1 != _int650
 + New bound is 332 (gap is 33.06%)
             496     374k         25    1   F        -
 + New bound is 338 (gap is 31.85%)
             496     634k        639    7   F   177 != _int661
 + New bound is 344 (gap is 30.65%)
             496     723k        662    1            -
 + New bound is 496 (gap is 0.00%)
 ! ----------------------------------------------------------------------------
 ! Search completed, 1 solution found.
 ! Best objective         : 496 (optimal - effective tol. is 0)
 ! Best bound             : 496
 ! ----------------------------------------------------------------------------
 ! Number of branches     : 5648002
 ! Number of fails        : 2265820
 ! Total memory usage     : 81.0 MB (80.4 MB CP Optimizer + 0.6 MB Concert)
 ! Time spent in solve    : 48.25s (48.24s engine + 0.02s extraction)
 ! Search speed (br. / s) : 117105.6
 ! ----------------------------------------------------------------------------
! --------------------------------------------------------
! Best span = 496
! Labeling: 1 1 166 331 166 166 1 166 166 1 1 166 1 166 1 166 1 1 1 1 331 166 166 166 331 331 1 1 1 166 331 166 1 166 166 1 331 1 1 1 1 166 1 1 166 1 1 166 166 1 331 166 1 166 166 1 166 166 166 166 1 166 166 166 166 166 166 1 1 1 166 1 331 331 1 1 1 1 1 1 166 331 166 166 166 166 1 166 1 331 166 1 166 166 166 166 166 331 166 1 331 166 1 166 166 166 1 1 1 1 1 1 166 166 166 1 166 166 166 166 1 1 1 331 166 166 331 166 1 331 166 331 1 1 166 331 1 166 166 496 1 166 331 166 166 166 166 1 166 166 166 166 331 331 331 1 166 1 166 1 1 1 166 1 1 166 1 1 331 331 331 1 166 1 166 1 1 1 166 1 166 166 1 1 166 166 1 331 1 166 1 166 1 166 166 1 331 166 1 1 1 1 166 1 1 331 166 1 166 1 1 1 1 1 166 1 1 331 1 331 331 331 166 1 1 331 166 1 331 1 1 166 331 1 166 166 166 166 1 331 1 1 166 1 166 166 1 331 1 166 331 331 1 1 1 1 331 166 331 166 166 331 1 1 1 1 1 166 331 1 1 166 1 166 166 166 166 166 1 1 166 1 166 1 166 496 166 166 166 166 331 331 166 1 166 1 166 1 166 166 331 1 1 1 166 1 1 166 1 166 166 1 331 166 166 331 166 166 166 1 1 166 1 166 166 1 1 1 166 1 1 166 331 166 166 166 1 166 1 331 166 166 166 1 166 1 166 166 1 1 166 166 1 166 1 496 166 1 166 1 166 166 1 166 166 1 1 331 166 1 1 1 331 1 1 166 166 331 1 166 331 331 1 331 166 166 166 1 1 1 166 331 1 331 1 166 1 166 1 166 166 1 1 1 1 1 1 166 331 1 1 166 1 1 331 166 166 1 166 331 1 1 166 1 166 1 166 166 1 331 166 1 331 166 1 166 166 1 1 1 1 1 331 166 1 1 1 166 166 1 331 1 1 1 166 1 166 1 166 1 1 331 166 331 1 1 1 166 166 166 1 331 1 1 1 331 1 1 1 166 1 166 166 1 166 166 166 166 166 166 1 1 166 331 1 1 1 166 166 166 1 1 331 1 1 166 166 1 1 1 166 166 1 331 331 1 1 166 166 166 331 331 331 1 1 1 166 166 166 1 166 331 1 1 1 166 1 1 166 1 166 331 1 166 166 1 1 1 1 166 166 1 1 166 166 331 166 1 331 331 1 1 166 166 166 1 166 1 166 1 331 1 166 166 1 1 1 1 1 1 1 166 166 331 331 166 166 166 1 1 1 166 166 166 166 166 1 166 1 1 1 166 1 166 1 166 331 1 1 331 1 166 331 1 166 166 1 166 166 1 166 1 166 1 331 1 166 166 1 1 1 1 166 1 1 166 166 1 1 1 166 1 1 1 331 166 166 331 166 331 1 166 1 1 331 166 331 166 331 331 1 331 
! -------------------------------------------------------- 
